c SAT Generator for power-law distributed variable frequencies
c -g u -v 20 -c 91 -k 3 -p 2.750000 -b 3.200000 -f /home/schmidt/Devel/ni-kop-sat/data/ensemble/ruf20-91/ruf20-91-836 -u 1 -U 1 -s 1875249926
p cnf 20 91
-2 -7 -16 0
-8 -14 18 0
-4 11 15 0
6 -8 12 0
6 -7 -8 0
-4 10 18 0
3 10 17 0
11 -12 13 0
-2 -4 14 0
-1 -2 -3 0
-8 -13 14 0
-3 -12 16 0
-5 -6 -11 0
10 19 -20 0
11 15 -18 0
-7 -12 -14 0
-3 -13 15 0
-1 13 18 0
1 8 13 0
2 15 -20 0
2 -14 18 0
11 19 -20 0
9 -18 19 0
12 14 17 0
-3 4 -14 0
3 8 -16 0
8 -9 -15 0
-1 -7 -15 0
18 -19 20 0
-6 9 -16 0
6 -16 -18 0
-5 8 9 0
-1 18 -19 0
-7 11 20 0
7 12 17 0
-8 -9 15 0
-1 -10 -12 0
-1 -8 17 0
7 9 -18 0
-15 -18 -20 0
4 -8 13 0
-7 11 -18 0
-6 -10 -12 0
-1 -7 15 0
-9 17 -19 0
-11 -13 17 0
-3 -6 -8 0
-1 -7 9 0
10 -11 12 0
9 15 -16 0
3 4 -12 0
-12 -14 18 0
-1 -11 14 0
11 13 -18 0
4 10 20 0
5 -11 -18 0
-6 -10 -14 0
-6 18 19 0
8 -10 -12 0
-9 10 -14 0
5 8 -18 0
-6 -11 -19 0
3 14 16 0
2 -6 10 0
10 -14 20 0
5 -6 -13 0
1 14 16 0
3 -14 20 0
1 -5 -6 0
1 -6 11 0
-5 10 17 0
3 -8 13 0
3 -4 8 0
-10 -13 19 0
2 -9 -14 0
-3 -16 -19 0
5 12 -14 0
10 14 -19 0
10 -12 -16 0
1 9 18 0
3 -17 18 0
-6 17 19 0
8 10 -11 0
7 -11 -16 0
2 -9 15 0
-3 9 -14 0
-1 -3 -4 0
-3 14 17 0
-1 -4 -11 0
8 11 19 0
5 14 19 0
